data;

set A := 515143 151224 812425 237355 721794 848114 760260 322321 676600 939591 209678 61910 3040 790258 880290 482118 587976 910109 601589 26547 234458 102937 836787 120575 500314 301793 860167 344977 784165 876125 646033 624732 257969 883994 783983 571677 273 520276 593911 887771 94256 456173 971384 575527 220498 87669 663934 173339 980120 654370 779597 727901 678010 683095 553251 659930 211916 418014 534648 175245 633659 701551 212222 408887 214991 91177 118434 783910 531433 684630 21771 272304 270148 513193 371416 656310 429749 107008 858020 996516;
param T := 20000000;

end;
